Using license file /home/benedond/gurobi.lic
Using gurobi.env file
Set parameter Threads to value 1
Academic license - for non-commercial use only
Changed value of parameter TimeLimit to 300.0
   Prev: inf  Min: 0.0  Max: inf  Default: inf
Gurobi Optimizer version 9.0.1 build v9.0.1rc0 (linux64)
Optimize a model with 6619 rows, 6343 columns and 31091 nonzeros
Model fingerprint: 0x68178069
Variable types: 110 continuous, 6233 integer (6233 binary)
Coefficient statistics:
  Matrix range     [2e-01, 5e+02]
  Objective range  [3e-03, 2e-01]
  Bounds range     [1e+00, 1e+00]
  RHS range        [1e+00, 3e+03]
Presolve removed 153 rows and 125 columns
Presolve time: 0.12s
Presolved: 6466 rows, 6218 columns, 30435 nonzeros
Variable types: 109 continuous, 6109 integer (6109 binary)

Root relaxation: objective 2.160259e+00, 6374 iterations, 0.49 seconds

    Nodes    |    Current Node    |     Objective Bounds      |     Work
 Expl Unexpl |  Obj  Depth IntInf | Incumbent    BestBd   Gap | It/Node Time

     0     0    2.16026    0  303          -    2.16026      -     -    0s
     0     0    2.29129    0  298          -    2.29129      -     -    1s
     0     0    2.30151    0  302          -    2.30151      -     -    1s
     0     0    2.39957    0  321          -    2.39957      -     -    1s
H    0     0                       4.5824259    2.39957  47.6%     -    2s
H    0     0                       4.0396806    2.39957  40.6%     -    4s
     0     0    2.41954    0  336    4.03968    2.41954  40.1%     -    4s
     0     0    2.48898    0  299    4.03968    2.48898  38.4%     -    5s
     0     0    2.52285    0  307    4.03968    2.52285  37.5%     -    5s
     0     0    2.52850    0  246    4.03968    2.52850  37.4%     -    5s
     0     0    2.52915    0  252    4.03968    2.52915  37.4%     -    5s
     0     0    2.52915    0  252    4.03968    2.52915  37.4%     -    5s
     0     0    2.55028    0  338    4.03968    2.55028  36.9%     -    6s
     0     0    2.56956    0  301    4.03968    2.56956  36.4%     -    6s
     0     0    2.57291    0  277    4.03968    2.57291  36.3%     -    6s
     0     0    2.57310    0  274    4.03968    2.57310  36.3%     -    6s
     0     0    2.58425    0  402    4.03968    2.58425  36.0%     -    7s
     0     0    2.58660    0  372    4.03968    2.58660  36.0%     -    7s
     0     0    2.58807    0  434    4.03968    2.58807  35.9%     -    7s
     0     0    2.58857    0  419    4.03968    2.58857  35.9%     -    7s
     0     0    2.58868    0  406    4.03968    2.58868  35.9%     -    7s
     0     0    2.60082    0  372    4.03968    2.60082  35.6%     -    7s
     0     0    2.60417    0  383    4.03968    2.60417  35.5%     -    8s
     0     0    2.60442    0  395    4.03968    2.60442  35.5%     -    8s
     0     0    2.61353    0  395    4.03968    2.61353  35.3%     -    8s
     0     0    2.61641    0  419    4.03968    2.61641  35.2%     -    8s
     0     0    2.61684    0  441    4.03968    2.61684  35.2%     -    8s
     0     0    2.61698    0  438    4.03968    2.61698  35.2%     -    8s
     0     0    2.62464    0  402    4.03968    2.62464  35.0%     -    9s
     0     0    2.62670    0  407    4.03968    2.62670  35.0%     -    9s
     0     0    2.62741    0  454    4.03968    2.62741  35.0%     -    9s
     0     0    2.62762    0  458    4.03968    2.62762  35.0%     -    9s
     0     0    2.63184    0  392    4.03968    2.63184  34.9%     -    9s
     0     0    2.63305    0  482    4.03968    2.63305  34.8%     -    9s
     0     0    2.63343    0  459    4.03968    2.63343  34.8%     -    9s
     0     0    2.63365    0  425    4.03968    2.63365  34.8%     -   10s
     0     0    2.64075    0  459    4.03968    2.64075  34.6%     -   10s
     0     0    2.64248    0  433    4.03968    2.64248  34.6%     -   10s
     0     0    2.64283    0  458    4.03968    2.64283  34.6%     -   10s
     0     0    2.64693    0  475    4.03968    2.64693  34.5%     -   11s
     0     0    2.64793    0  486    4.03968    2.64793  34.5%     -   11s
     0     0    2.64837    0  512    4.03968    2.64837  34.4%     -   11s
     0     0    2.64850    0  498    4.03968    2.64850  34.4%     -   11s
     0     0    2.65083    0  420    4.03968    2.65083  34.4%     -   11s
     0     0    2.65137    0  414    4.03968    2.65137  34.4%     -   11s
     0     0    2.65156    0  374    4.03968    2.65156  34.4%     -   12s
     0     0    2.65439    0  415    4.03968    2.65439  34.3%     -   12s
     0     0    2.65439    0  394    4.03968    2.65439  34.3%     -   15s
     0     2    2.65439    0  394    4.03968    2.65439  34.3%     -   16s
    12    14    2.67589    8  306    4.03968    2.65445  34.3%   637   20s
H   14    14                       3.9068479    2.65445  32.1%   590   21s
    25    27    2.76887   18  364    3.90685    2.65445  32.1%   750   25s
H   27    27                       3.5969772    2.65445  26.2%   709   35s
    50    52    2.74601   40  412    3.59698    2.65445  26.2%   628   40s
    76    78    2.95288   58  278    3.59698    2.65445  26.2%   678   45s
    99   101    2.95502   75  242    3.59698    2.65445  26.2%   702   50s
   133   135    3.00139   99  215    3.59698    2.65445  26.2%   719   55s
H  138   138                       3.5681825    2.65445  25.6%   710   61s
   163   165    3.23201  118  145    3.56818    2.65445  25.6%   735   65s
H  203   203                       3.4281293    2.65445  22.6%   674   71s
   266   251    2.67972   10  478    3.42813    2.65466  22.6%   576   75s
   293   278    2.87347   33  288    3.42813    2.65466  22.6%   594   80s
   318   303    2.87006   56  350    3.42813    2.65466  22.6%   587   90s
   338   323    2.92205   70  302    3.42813    2.65466  22.6%   618   95s
   371   356    3.10072   95  295    3.42813    2.65466  22.6%   631  100s
   417   402    3.16457  129  320    3.42813    2.65466  22.6%   624  105s
   488   467    3.35315  184  235    3.42813    2.65466  22.6%   595  110s
   511   487    2.70408   22  394    3.42813    2.65466  22.6%   579  119s
   513   488    3.19075  140  348    3.42813    2.65466  22.6%   577  121s
   514   489    2.77358   13  265    3.42813    2.65466  22.6%   576  125s
   521   494    3.19284  139  474    3.42813    2.67174  22.1%   568  130s
   528   498    3.20397  116  556    3.42813    2.69210  21.5%   561  135s
   534   502    3.12265  109  530    3.42813    2.69894  21.3%   554  159s
   535   503    3.11633  107  572    3.42813    2.69994  21.2%   553  160s
   540   506    2.80062   57  659    3.42813    2.70587  21.1%   548  165s
   544   509    3.12265  109  623    3.42813    2.71415  20.8%   544  171s
   547   511    3.09913  104  624    3.42813    2.72680  20.5%   541  175s
   552   514    3.10662  100  511    3.42813    2.73383  20.3%   536  180s
   558   518    2.86921   78  584    3.42813    2.74170  20.0%   531  185s
   564   522    3.35376  166  590    3.42813    2.74735  19.9%   525  191s
   570   526    3.12225  109  601    3.42813    2.75123  19.7%   519  195s
   576   530    3.34798  128  525    3.42813    2.75501  19.6%   514  200s
   582   534    3.37360  136  657    3.42813    2.75768  19.6%   509  206s
   587   538    3.37360  136  660    3.42813    2.76022  19.5%   504  210s
   594   542    2.82067   65  628    3.42813    2.76347  19.4%   498  215s
   599   546    3.35200  160  631    3.42813    2.76616  19.3%   494  220s
   605   550    3.22483  160  672    3.42813    2.76780  19.3%   489  225s
   610   553    3.22666  161  724    3.42813    2.76901  19.2%   485  230s
   616   557    2.77001   10  695    3.42813    2.77001  19.2%   481  235s
   622   561    3.12225  109  676    3.42813    2.77145  19.2%   476  240s
   628   565    3.20397  116  607    3.42813    2.77242  19.1%   472  245s
   634   569    3.12265  109  599    3.42813    2.77318  19.1%   467  250s
   642   574    3.16815  131  664    3.42813    2.77413  19.1%   461  255s
   648   578    2.77518   28  631    3.42813    2.77518  19.0%   457  260s
   654   582    3.36067  194  598    3.42813    2.77643  19.0%   453  265s
   660   586    3.13441  116  669    3.42813    2.77730  19.0%   449  270s
   665   590    2.77797   37  727    3.42813    2.77797  19.0%   445  275s
   670   593    3.12225  109  688    3.42813    2.77857  18.9%   442  281s
   674   596    2.77900    3  690    3.42813    2.77900  18.9%   439  285s
   679   599    3.21618  151  668    3.42813    2.77963  18.9%   436  290s
   684   602    3.28155  139  663    3.42813    2.78004  18.9%   433  295s

Cutting planes:
  Gomory: 2
  Cover: 29
  Implied bound: 5
  Projected implied bound: 1
  Clique: 13
  MIR: 342
  StrongCG: 1
  Flow cover: 871
  RLT: 51
  Relax-and-lift: 551

Explored 688 nodes (565182 simplex iterations) in 300.01 seconds
Thread count was 1 (of 4 available processors)

Solution count 6: 3.42813 3.56818 3.59698 ... 4.58243

Time limit reached
Best objective 3.428129274418e+00, best bound 2.780788694501e+00, gap 18.8832%
